week_length = 7;
nb_workers = 40;
min_daysoff = 2;
max_daysoff = 4;
min_work = 3;
max_work = 7;
nb_shifts = 2;
temp_req = [| 18, 17, 17, 17, 17, 4, 4
            | 16, 15, 15, 15, 15, 2, 2 |];
shift_name = ["D", "A"];
shift_start = [360, 840];
shift_length = [480, 480];
shift_block_min = [3, 3];
shift_block_max = [7, 6];
nb_forbidden = 1;
forbidden_before = [2];
forbidden_after = [1];
forbidden_daysoff = [false];
